
        $ From http://www.csplib.org/Problems/prob009/data/helmut.pdf
        $ Problem number 105
        $ Sequence length : 25
        language ESSENCE' 1.0
        letting sizemaster be 364
        letting sizes be sequence(2,3,4,6,8,9,13,14,16,19,23,24,28,29,52,57,64,75,82,91,98,100,109,173,191)
        